c graph converted from Delauney Triangulation format
c weights on edges removed (lost)
x low 0.00
p edge 105 292
n 0 1.00
n 1 1.00
n 5 1.00
n 2 1.00
n 3 1.00
n 6 1.00
n 11 1.00
n 7 1.00
n 8 1.00
n 4 1.00
n 12 1.00
n 13 1.00
n 9 1.00
n 15 1.00
n 16 1.00
n 10 1.00
n 28 1.00
n 21 1.00
n 20 1.00
n 14 1.00
n 90 1.00
n 48 1.00
n 102 1.00
n 19 1.00
n 18 1.00
n 33 1.00
n 34 1.00
n 17 1.00
n 24 1.00
n 25 1.00
n 36 1.00
n 23 1.00
n 22 1.00
n 29 1.00
n 27 1.00
n 26 1.00
n 35 1.00
n 32 1.00
n 30 1.00
n 31 1.00
n 39 1.00
n 103 1.00
n 37 1.00
n 38 1.00
n 40 1.00
n 41 1.00
n 59 1.00
n 52 1.00
n 60 1.00
n 44 1.00
n 42 1.00
n 43 1.00
n 45 1.00
n 51 1.00
n 46 1.00
n 47 1.00
n 50 1.00
n 49 1.00
n 70 1.00
n 58 1.00
n 54 1.00
n 53 1.00
n 57 1.00
n 56 1.00
n 55 1.00
n 104 1.00
n 61 1.00
n 62 1.00
n 66 1.00
n 63 1.00
n 64 1.00
n 65 1.00
n 68 1.00
n 69 1.00
n 71 1.00
n 72 1.00
n 86 1.00
n 87 1.00
n 67 1.00
n 77 1.00
n 76 1.00
n 73 1.00
n 74 1.00
n 80 1.00
n 89 1.00
n 75 1.00
n 79 1.00
n 83 1.00
n 78 1.00
n 81 1.00
n 85 1.00
n 88 1.00
n 84 1.00
n 82 1.00
n 92 1.00
n 93 1.00
n 94 1.00
n 97 1.00
n 98 1.00
n 91 1.00
n 95 1.00
n 96 1.00
n 100 1.00
n 101 1.00
n 99 1.00
e 0 1
e 0 5
e 0 2
e 0 3
e 1 5
e 1 2
e 2 5
e 2 6
e 2 11
e 2 7
e 2 8
e 2 4
e 2 3
e 3 12
e 3 4
e 4 13
e 4 8
e 4 12
e 5 6
e 6 11
e 6 9
e 7 11
e 7 15
e 7 8
e 8 15
e 8 16
e 8 13
e 9 11
e 9 10
e 10 28
e 10 21
e 10 20
e 10 14
e 10 90
e 10 48
e 10 11
e 11 14
e 11 102
e 11 19
e 11 18
e 11 15
e 12 13
e 12 33
e 13 16
e 13 34
e 13 33
e 14 20
e 14 102
e 15 18
e 15 17
e 15 16
e 16 17
e 16 24
e 16 25
e 16 36
e 16 34
e 17 18
e 17 23
e 17 24
e 18 22
e 18 19
e 18 23
e 19 22
e 19 102
e 20 21
e 20 102
e 21 28
e 21 102
e 22 29
e 22 102
e 22 27
e 22 26
e 22 23
e 23 26
e 23 25
e 23 24
e 24 25
e 25 26
e 25 35
e 25 36
e 26 27
e 26 32
e 26 35
e 27 29
e 27 32
e 28 48
e 28 30
e 28 31
e 28 29
e 28 102
e 29 30
e 29 102
e 29 32
e 30 31
e 30 32
e 31 48
e 31 39
e 31 32
e 31 103
e 32 103
e 32 35
e 33 34
e 33 37
e 34 36
e 34 38
e 34 37
e 35 103
e 35 40
e 35 36
e 36 40
e 36 41
e 36 38
e 37 38
e 37 59
e 38 41
e 38 52
e 38 60
e 38 59
e 39 48
e 39 44
e 39 103
e 40 42
e 40 43
e 40 103
e 40 41
e 41 42
e 41 45
e 41 51
e 41 52
e 42 43
e 42 45
e 43 46
e 43 44
e 43 103
e 43 45
e 44 48
e 44 47
e 44 103
e 44 46
e 45 46
e 45 51
e 46 47
e 46 50
e 46 51
e 47 49
e 47 48
e 47 50
e 48 90
e 48 70
e 48 58
e 48 54
e 48 49
e 49 54
e 49 50
e 49 53
e 50 53
e 50 51
e 50 52
e 51 52
e 52 53
e 52 57
e 52 60
e 53 54
e 53 56
e 53 57
e 54 58
e 54 55
e 54 56
e 55 58
e 55 104
e 55 56
e 56 104
e 56 57
e 56 61
e 57 61
e 57 62
e 57 60
e 58 70
e 58 66
e 58 104
e 58 63
e 59 60
e 59 64
e 60 62
e 60 65
e 60 64
e 61 63
e 61 104
e 61 68
e 61 62
e 62 68
e 62 69
e 62 65
e 63 66
e 63 71
e 63 104
e 63 72
e 63 68
e 64 65
e 64 86
e 65 69
e 65 87
e 65 86
e 66 70
e 66 67
e 66 71
e 67 70
e 67 77
e 67 76
e 67 71
e 68 72
e 68 73
e 68 69
e 69 73
e 69 74
e 69 80
e 69 89
e 69 87
e 70 77
e 70 90
e 71 76
e 71 75
e 71 72
e 72 75
e 72 73
e 73 75
e 73 74
e 74 80
e 74 75
e 75 79
e 75 76
e 75 80
e 76 83
e 76 77
e 76 78
e 76 79
e 77 81
e 77 90
e 77 83
e 78 83
e 78 85
e 78 79
e 79 85
e 79 80
e 79 88
e 80 88
e 80 89
e 81 90
e 81 84
e 81 82
e 81 83
e 82 84
e 82 83
e 83 84
e 83 85
e 84 90
e 84 85
e 84 92
e 85 92
e 85 88
e 86 87
e 86 93
e 87 89
e 87 94
e 87 93
e 88 92
e 88 97
e 88 89
e 89 97
e 89 98
e 89 94
e 90 92
e 90 91
e 91 92
e 91 95
e 92 95
e 92 96
e 92 100
e 92 101
e 92 97
e 93 94
e 93 99
e 94 98
e 94 99
e 95 96
e 96 100
e 97 101
e 97 98
e 98 99
e 98 101
e 99 101
e 100 101
